20170526 250 0 0 0
20160708 150 0 0 0
20150512 150 10000 0 0
20140520 100 0 0 0
20121115 200 0 0 0
20110920 350 0 0 0
20110616 100 0 0 0
20100705 400 0 0 0
20090520 300 5000 0 0
20080602 100 6000 0 0
